10J3M/DAT/10J3MNNA-7.dat
10 3
37.1609 1380.9325
29.557 873.6162
25.9623 674.041
23.8772 570.1207
22.2977 497.1874
19.2122 369.1086
24.6719 608.7026
19.2361 370.0275
34.4278 1185.2734
18.9276 358.254
6887.2639