10J3M/SOL/10J3MNNA-7.sol
solution status: optimal solution found
objective value:                     78.7155666666666
x#1#1                                               1 	(obj:0)
x#2#3                                               1 	(obj:0)
x#3#2                                               1 	(obj:0)
x#4#2                                               1 	(obj:0)
x#5#2                               0.208247302586926 	(obj:0)
x#5#3                               0.791752697413074 	(obj:0)
x#6#1                                               1 	(obj:0)
x#7#1                                               1 	(obj:0)
x#8#3                                               1 	(obj:0)
x#9#1                               0.818455784098678 	(obj:0)
x#9#2                               0.181544215901322 	(obj:0)
x#10#2                                              1 	(obj:0)
z                                    78.7155666666666 	(obj:1)
